%chk=gauss.chk
%nprocs=8
%mem=6GB
#p  force b3lyp em=gd3 td=(nstates=6,root=1)  6-31G* guess=read 

This is test

0 1
C     -4.1034879171      0.2506579223      0.0584074214 
C     -3.1027054939     -0.7912796178     -0.0056507528 
C     -1.7351816958     -0.3481915684      0.1474870509 
C     -1.3576484502      0.9254398005      0.3073383226 
C     -2.3173536881      2.0202533681      0.4783630309 
C     -3.7212323901      1.5894214111      0.2314514779 
H     -5.0870417012     -0.0656751159      0.0510694102 
H     -3.4466280676     -1.8548961706     -0.2000403064 
C      0.1257449940      1.1983031167      0.2704398869 
H     -4.5153594005      2.3028583305      0.3731811189 
C      0.4881173367     -1.1658627691     -0.0910961413 
H      1.0310615912     -2.0727219206     -0.2546722365 
O      0.5403320807      2.4272908573      0.4086168045 
O     -0.8616181310     -1.3497760303      0.0967119981 
O     -2.0633479176      3.1130177993      0.8122151097 
H     -0.3054267610      2.9171280258      0.6052372378 
C      2.4363260601      0.3876864194      0.0567055355 
C      3.2625672307     -0.5279395349      0.7340442321 
C      3.0306940390      1.4148025269     -0.7012461172 
C      4.6740723734     -0.3623239056      0.7429429049 
H      2.8573712233     -1.3107869130      1.3759105600 
C      4.4219222665      1.5632506181     -0.6543348448 
H      2.4370333222      2.0594756890     -1.2986244088 
C      5.2247550613      0.7365835332      0.1044443114 
H      5.3468017301     -1.0484398273      1.3360867314 
H      4.8402790743      2.4373439759     -1.2374224514 
H      6.2703408885      0.9024719476      0.0285348426 
C      1.0233949100      0.1582054278      0.1138515850  


