! WB97X-D3 nousesym   RIJCOSX def2-SVP def2/J def2-SVP/C miniprint  TightSCF grid5 gridx5  EnGrad
%pal nprocs 4 end
%TDDFT 
nroots 5
iroot  2
tda false
printlevel 3
end
* xyz 0 1
C      1.4132090737      0.9678422463      0.3843377436
C      0.1639687364      1.6031048938     -0.3744813927
C     -1.1898853155      1.2202000256      0.0997284980
C     -1.2000983640     -0.2982526211      0.1427596846
C     -0.0620225757     -1.0824262119     -0.1219231429
C      1.3795079227     -0.5423554213      0.0185211054
O      2.3166505327     -1.2849502133     -0.1564379559
N     -2.3532762099     -0.8861214455      0.1079997553
H      2.2402062944      1.3294163152      0.1166346641
H      1.3266621547      1.1254873049      1.3596376089
H      0.3906185349      2.6867012822     -0.4118775592
H      0.2000120440      1.5811548437     -1.5036263068
H     -1.9193899411      1.4641630102     -0.5775046885
H     -1.4796376775      1.5070400378      1.1566037487
H     -0.4407538320     -2.1394587029     -0.4679918806
H     -3.2314332790     -0.3398035558      0.0796557265
H     -2.5293855955     -2.0925865614     -0.1373145672  
end 