%chk=gauss.chk
%nprocs=6
%mem=6GB
#p guess=read  B3LYP STO-3G tda=(nstates=6, root=2)  force nosymm

This is test

0 1
C          1.4456915417        0.8004008636        0.2825103172
C          0.3283713619        1.6933724324       -0.2610308029
C         -1.0433386600        1.1108893031        0.0944838685
C         -1.1384957863       -0.3571833447       -0.2507509454
C          0.0348602461       -0.9683042645       -0.9322113160
C          1.3045418656       -0.5812608723       -0.3061331713
O          1.7283666831       -1.6347532614        0.3919738183
N         -1.9172501345       -1.1364730158        0.5989415213
H          2.4278331724        1.2170731753        0.0467423212
H          1.3817710887        0.7422319556        1.3749184260
H          0.4222969922        2.7048064936        0.1367581022
H          0.4264717238        1.7730073760       -1.3463909643
H         -1.8393202601        1.6725335639       -0.4029712542
H         -1.2129358626        1.2398587839        1.1707023413
H         -0.0400491825       -1.9173492044       -1.4450580811
H         -1.9476516400       -0.8648951329        1.5641572541
H         -1.8195484393       -2.1262007214        0.4951391749

