!WB97X-D3 nousesym RIJCOSX def2-SV(P)  def2/J def2-SVP/C miniprint TightSCF grid4 gridx4 EnGrad
!moread
%moinp "orca.old.gbw"
%base "orca"
%pal nprocs 4 end
%TDDFT 
nroots 5
iroot  2
tda = false
printlevel 3
end
* xyz 0 1
C     -2.4849932942      3.9174880324      0.5173858162
C     -3.8148081772      4.1855885176     -0.1444438738
C     -4.9901171011      3.0821542185      0.2094042984
C     -4.4455461543      1.7021720605      0.5156163600
C     -3.0194458986      1.4169586596      0.6017590179
C     -2.0204683331      2.5281172620      0.6786719687
O     -0.6910349179      2.4091802788      0.4255846071
N     -5.5066664930      0.8893715452      0.6164053270
H     -1.7096676437      4.5791202320      0.2132157887
H     -2.6372976400      4.3194988592      1.6529161408
H     -4.0917704201      5.1787951185      0.2319634539
H     -3.7021611696      4.4149668728     -1.2093765555
H     -5.7583900590      2.9754240679     -0.6542399894
H     -5.6180480431      3.4461846245      0.8973523143
H     -2.5790857637      0.5624464296      0.8027030544
H     -5.2114675716     -0.0856188416      0.9929638630
H     -6.3288935809      1.4961886081      0.9938940656  
end 
